42
1000
200	1
199	1
198	1
196	3
194	4
193	3
192	2
191	3
189	2
188	6
187	3
185	6
184	2
183	2
181	1
180	1
178	3
177	3
175	3
174	2
173	2
172	4
171	6
170	2
169	2
168	3
167	4
166	1
163	1
162	1
161	3
160	2
159	1
158	1
157	3
156	1
155	1
154	1
153	2
152	3
151	3
150	1
